50 8
823 405
784 852
161 417
283 356
691 275
72 554
535 323
711 749
926 142
652 234
179 194
770 866
855 625
541 291
762 237
693 295
286 327
861 627
797 655
211 331
217 546
572 210
871 275
774 439
413 427
185 24
362 14
197 410
591 749
48 650
668 343
414 388
759 236
282 96
693 294
787 145
326 265
256 13
316 273
629 429
629 332
659 338
937 854
382 313
946 346
229 15
742 581
767 327
790 230
464 324
